# Objective value = 1.1932099999999999e+04
I_0_0 2155
I_0_1 3016
I_0_2 2607
I_0_3 2.3820000000000005e+03
I_0_4 2740
I_0_5 2323
I_0_6 3184
I_1_0 194
I_1_1 97
I_1_2 1.9399999999999955e+02
I_1_3 9.7000000000000227e+01
I_1_4 194
I_1_5 9.7000000000000256e+01
I_1_6 2.6467716907063732e-13
I_2_0 142
I_2_1 71
I_2_2 3.6948222259525210e-13
I_2_3 1.4199999999999955e+02
I_2_4 1.4199999999999994e+02
I_2_5 71
I_2_6 1.7763568394002505e-15
I_3_0 126
I_3_1 63
I_3_2 0
I_3_3 1.2599999999999996e+02
I_3_4 6.2999999999999829e+01
I_3_5 1.2599999999999986e+02
I_3_6 6.2999999999999815e+01
I_4_0 10
I_4_1 0
I_4_2 10
I_4_3 9.9999999999999680e+00
I_4_4 2.5465740627339528e-14
I_4_5 9.99999999999999
I_4_6 1.3877787807814457e-16
I_5_0 30
I_5_1 0
I_5_2 30
I_5_3 30
I_5_4 -7.6189055064901368e-14
I_5_5 2.9999999999999993e+01
I_5_6 0
I_6_0 46
I_6_1 0
I_6_2 46
I_6_3 46
I_6_4 6.38378239159465e-16
I_6_5 46
I_6_6 6.38378239159465e-16
I_7_0 198
I_7_1 99
I_7_2 198
I_7_3 1.9799999999999986e+02
I_7_4 9.8999999999999986e+01
I_7_5 198
I_7_6 9.8999999999999972e+01
I_8_0 22
I_8_1 11
I_8_2 2.2000000000000004e+01
I_8_3 1.1000000000000004e+01
I_8_4 0
I_8_5 2.2000000000000004e+01
I_8_6 1.0999999999999991e+01
I_9_0 92
I_9_1 0
I_9_2 92
I_9_3 92
I_9_4 0
I_9_5 92
I_9_6 0
I_10_0 76
I_10_1 0
I_10_2 76
I_10_3 7.6000000000000014e+01
I_10_4 -5.8009153036664429e-15
I_10_5 76
I_10_6 0
I_11_0 68
I_11_1 34
I_11_2 0
I_11_3 68
I_11_4 3.3999999999999865e+01
I_11_5 6.7999999999999929e+01
I_11_6 3.3999999999999936e+01
I_12_0 116
I_12_1 58
I_12_2 0
I_12_3 116
I_12_4 58
I_12_5 1.1600000000000001e+02
I_12_6 5.7999999999999957e+01
I_13_0 55
I_13_1 0
I_13_2 55
I_13_3 55
I_13_4 0
I_13_5 55
I_13_6 0
I_14_0 36
I_14_1 0
I_14_2 36
I_14_3 0
I_14_4 36
I_14_5 36
I_14_6 4.9960036108132044e-16
I_15_0 83
I_15_1 0
I_15_2 83
I_15_3 0
I_15_4 83
I_15_5 83
I_15_6 0
q_1_0 0
q_1_1 1.9399999999999952e+02
q_1_2 6.8567374000849668e-13
q_1_3 1.9399999999999980e+02
q_1_4 3.1441516057384433e-13
q_1_5 1.7763568394002505e-15
q_2_0 0
q_2_1 3.6237679523765109e-13
q_2_2 2.1299999999999918e+02
q_2_3 7.1000000000000369e+01
q_2_4 0
q_2_5 2.6645352591003757e-15
q_3_0 0
q_3_1 0
q_3_2 1.8899999999999994e+02
q_3_3 0
q_3_4 1.2600000000000003e+02
q_3_5 -8.8817841970012523e-15
q_4_0 0
q_4_1 20
q_4_2 9.9999999999999680e+00
q_4_3 5.7440163736544037e-14
q_4_4 1.9999999999999964e+01
q_4_5 1.0796918914479647e-14
q_5_0 0
q_5_1 60
q_5_2 30
q_5_3 -7.6189055064901368e-14
q_5_4 6.0000000000000071e+01
q_5_5 7.1054273576010019e-15
q_6_0 0
q_6_1 92
q_6_2 46
q_6_3 6.38378239159465e-16
q_6_4 92
q_6_5 6.38378239159465e-16
q_7_0 0
q_7_1 198
q_7_2 9.8999999999999886e+01
q_7_3 0
q_7_4 198
q_7_5 -1.0658141036401503e-14
q_8_0 0
q_8_1 2.1999999999999993e+01
q_8_2 0
q_8_3 0
q_8_4 33
q_8_5 -5.5511151231257827e-16
q_9_0 0
q_9_1 184
q_9_2 92
q_9_3 0
q_9_4 184
q_9_5 0
q_10_0 0
q_10_1 152
q_10_2 7.6000000000000014e+01
q_10_3 -2.0011770018868447e-14
q_10_4 152
q_10_5 0
q_11_0 0
q_11_1 0
q_11_2 102
q_11_3 0
q_11_4 6.8000000000000057e+01
q_11_5 2.2204460492503131e-15
q_12_0 0
q_12_1 0
q_12_2 174
q_12_3 0
q_12_4 1.1600000000000001e+02
q_12_5 0
q_13_0 0
q_13_1 110
q_13_2 55
q_13_3 0
q_13_4 110
q_13_5 0
q_14_0 0
q_14_1 72
q_14_2 0
q_14_3 72
q_14_4 36
q_14_5 4.9960036108132044e-16
q_15_0 0
q_15_1 166
q_15_2 0
q_15_3 166
q_15_4 83
q_15_5 0
y_0_0 0
y_0_1 1
y_0_2 1
y_0_3 1
y_0_4 1
y_0_5 0
y_1_0 0
y_1_1 9.9999999999999745e-01
y_1_2 2.3592239273284576e-15
y_1_3 9.9999999999999889e-01
y_1_4 1.0720591081536668e-15
y_1_5 0
y_2_0 0
y_2_1 2.5326962749261384e-15
y_2_2 9.9999999999999667e-01
y_2_3 9.9999999999999944e-01
y_2_4 0
y_2_5 6.9388939039072284e-18
y_3_0 0
y_3_1 0
y_3_2 9.9999999999999933e-01
y_3_3 0
y_3_4 0.999999999999998
y_3_5 6.9388939039072284e-18
y_4_0 0
y_4_1 1
y_4_2 9.9999999999999689e-01
y_4_3 2.5465740627339528e-15
y_4_4 9.9999999999999889e-01
y_4_5 1.3877787807814457e-17
y_5_0 0
y_5_1 1
y_5_2 1
y_5_3 -2.5396351688300456e-15
y_5_4 9.9999999999999978e-01
y_5_5 0
y_6_0 0
y_6_1 1
y_6_2 1
y_6_3 1.3877787807814457e-17
y_6_4 1
y_6_5 1.3877787807814457e-17
y_7_0 0
y_7_1 1
y_7_2 9.9999999999999845e-01
y_7_3 0
y_7_4 1
y_7_5 -5.5511151231257827e-17
y_8_0 0
y_8_1 1
y_8_2 0
y_8_3 0
y_8_4 9.9999999999999978e-01
y_8_5 -2.42861286636753e-17
y_9_0 0
y_9_1 1
y_9_2 1
y_9_3 0
y_9_4 1
y_9_5 0
y_10_0 0
y_10_1 1
y_10_2 1.0000000000000002e+00
y_10_3 -7.6327832942979512e-17
y_10_4 1
y_10_5 0
y_11_0 0
y_11_1 0
y_11_2 1
y_11_3 0
y_11_4 0.999999999999999
y_11_5 2.0816681711721685e-17
y_12_0 0
y_12_1 0
y_12_2 1
y_12_3 0
y_12_4 1
y_12_5 0
y_13_0 0
y_13_1 1
y_13_2 1
y_13_3 0
y_13_4 1
y_13_5 0
y_14_0 0
y_14_1 1
y_14_2 0
y_14_3 1
y_14_4 1
y_14_5 1.3877787807814457e-17
y_15_0 0
y_15_1 1
y_15_2 0
y_15_3 1
y_15_4 1
y_15_5 0
x_0_1_0 0
x_0_1_1 0.999999999999998
x_0_1_2 4.7184478546569153e-15
x_0_1_3 1
x_0_1_4 1.6132928326584306e-15
x_0_1_5 0
x_0_2_0 0
x_0_2_1 2.5188184871183239e-15
x_0_2_2 9.9999999999999512e-01
x_0_2_3 9.9999999999999833e-01
x_0_2_4 0
x_0_2_5 0
x_0_3_0 0
x_0_3_1 0
x_0_3_2 0
x_0_3_3 0
x_0_3_4 0
x_0_3_5 0
x_0_4_0 0
x_0_4_1 0
x_0_4_2 0
x_0_4_3 0
x_0_4_4 0
x_0_4_5 0
x_0_5_0 0
x_0_5_1 0
x_0_5_2 0
x_0_5_3 0
x_0_5_4 0
x_0_5_5 0
x_0_6_0 0
x_0_6_1 0
x_0_6_2 0
x_0_6_3 0
x_0_6_4 0
x_0_6_5 0
x_0_7_0 0
x_0_7_1 0
x_0_7_2 0
x_0_7_3 0
x_0_7_4 0
x_0_7_5 0
x_0_8_0 0
x_0_8_1 0
x_0_8_2 0
x_0_8_3 0
x_0_8_4 0
x_0_8_5 0
x_0_9_0 0
x_0_9_1 1
x_0_9_2 1
x_0_9_3 0
x_0_9_4 9.9999999999999933e-01
x_0_9_5 0
x_0_10_0 0
x_0_10_1 0
x_0_10_2 0
x_0_10_3 0
x_0_10_4 0
x_0_10_5 0
x_0_11_0 0
x_0_11_1 0
x_0_11_2 0
x_0_11_3 0
x_0_11_4 0
x_0_11_5 0
x_0_12_0 0
x_0_12_1 0
x_0_12_2 0
x_0_12_3 0
x_0_12_4 0
x_0_12_5 0
x_0_13_0 0
x_0_13_1 0
x_0_13_2 0
x_0_13_3 0
x_0_13_4 0
x_0_13_5 0
x_0_14_0 0
x_0_14_1 -2.42861286636753e-16
x_0_14_2 0
x_0_14_3 1.8873791418627661e-15
x_0_14_4 9.9999999999999956e-01
x_0_14_5 0
x_0_15_0 0
x_0_15_1 0
x_0_15_2 0
x_0_15_3 2.0816681711721685e-17
x_0_15_4 0
x_0_15_5 0
x_1_2_0 0
x_1_2_1 0
x_1_2_2 0
x_1_2_3 0
x_1_2_4 0
x_1_2_5 0
x_1_3_0 0
x_1_3_1 0
x_1_3_2 0
x_1_3_3 0
x_1_3_4 0
x_1_3_5 0
x_1_4_0 0
x_1_4_1 0
x_1_4_2 0
x_1_4_3 0
x_1_4_4 0
x_1_4_5 0
x_1_5_0 0
x_1_5_1 0
x_1_5_2 0
x_1_5_3 0
x_1_5_4 0
x_1_5_5 0
x_1_6_0 0
x_1_6_1 0
x_1_6_2 0
x_1_6_3 0
x_1_6_4 0
x_1_6_5 0
x_1_7_0 0
x_1_7_1 0
x_1_7_2 0
x_1_7_3 0
x_1_7_4 0
x_1_7_5 0
x_1_8_0 0
x_1_8_1 0
x_1_8_2 0
x_1_8_3 0
x_1_8_4 0
x_1_8_5 0
x_1_9_0 0
x_1_9_1 0
x_1_9_2 0
x_1_9_3 0
x_1_9_4 0
x_1_9_5 0
x_1_10_0 0
x_1_10_1 0
x_1_10_2 0
x_1_10_3 0
x_1_10_4 0
x_1_10_5 0
x_1_11_0 0
x_1_11_1 0
x_1_11_2 0
x_1_11_3 0
x_1_11_4 0
x_1_11_5 0
x_1_12_0 0
x_1_12_1 0
x_1_12_2 0
x_1_12_3 0
x_1_12_4 0
x_1_12_5 0
x_1_13_0 0
x_1_13_1 0
x_1_13_2 0
x_1_13_3 0
x_1_13_4 0
x_1_13_5 0
x_1_14_0 0
x_1_14_1 9.9999999999999711e-01
x_1_14_2 0
x_1_14_3 0.999999999999998
x_1_14_4 5.1694759584108851e-16
x_1_14_5 2.7755575615628914e-17
x_1_15_0 0
x_1_15_1 0
x_1_15_2 0
x_1_15_3 0
x_1_15_4 0
x_1_15_5 -2.7755575615628914e-17
x_2_3_0 0
x_2_3_1 0
x_2_3_2 9.9999999999999933e-01
x_2_3_3 2.5257573810222311e-15
x_2_3_4 -5.2041704279304213e-17
x_2_3_5 6.9388939039072284e-18
x_2_4_0 0
x_2_4_1 0
x_2_4_2 -2.5396351688300456e-15
x_2_4_3 0
x_2_4_4 0
x_2_4_5 0
x_2_5_0 0
x_2_5_1 0
x_2_5_2 2.55351295663786e-15
x_2_5_3 0
x_2_5_4 0
x_2_5_5 0
x_2_6_0 0
x_2_6_1 0
x_2_6_2 0
x_2_6_3 0
x_2_6_4 0
x_2_6_5 0
x_2_7_0 0
x_2_7_1 0
x_2_7_2 0
x_2_7_3 0
x_2_7_4 0
x_2_7_5 0
x_2_8_0 0
x_2_8_1 0
x_2_8_2 0
x_2_8_3 0
x_2_8_4 0
x_2_8_5 0
x_2_9_0 0
x_2_9_1 0
x_2_9_2 0
x_2_9_3 0
x_2_9_4 0
x_2_9_5 0
x_2_10_0 0
x_2_10_1 0
x_2_10_2 0
x_2_10_3 0
x_2_10_4 0
x_2_10_5 0
x_2_11_0 0
x_2_11_1 0
x_2_11_2 0
x_2_11_3 0
x_2_11_4 0
x_2_11_5 0
x_2_12_0 0
x_2_12_1 0
x_2_12_2 0
x_2_12_3 0
x_2_12_4 0
x_2_12_5 0
x_2_13_0 0
x_2_13_1 0
x_2_13_2 0
x_2_13_3 0
x_2_13_4 0
x_2_13_5 0
x_2_14_0 0
x_2_14_1 2.5257573810222311e-15
x_2_14_2 0
x_2_14_3 0
x_2_14_4 5.2041704279304213e-17
x_2_14_5 0
x_2_15_0 0
x_2_15_1 0
x_2_15_2 0
x_2_15_3 9.9999999999999811e-01
x_2_15_4 0
x_2_15_5 0
x_3_4_0 0
x_3_4_1 0
x_3_4_2 9.9999999999999944e-01
x_3_4_3 0
x_3_4_4 0.999999999999998
x_3_4_5 0
x_3_5_0 0
x_3_5_1 0
x_3_5_2 0
x_3_5_3 -2.55351295663786e-15
x_3_5_4 1.0000000000000007e+00
x_3_5_5 0
x_3_6_0 0
x_3_6_1 0
x_3_6_2 0
x_3_6_3 0
x_3_6_4 0
x_3_6_5 0
x_3_7_0 0
x_3_7_1 0
x_3_7_2 0
x_3_7_3 0
x_3_7_4 0
x_3_7_5 0
x_3_8_0 0
x_3_8_1 0
x_3_8_2 0
x_3_8_3 0
x_3_8_4 0
x_3_8_5 0
x_3_9_0 0
x_3_9_1 0
x_3_9_2 0
x_3_9_3 0
x_3_9_4 0
x_3_9_5 0
x_3_10_0 0
x_3_10_1 0
x_3_10_2 0
x_3_10_3 0
x_3_10_4 0
x_3_10_5 0
x_3_11_0 0
x_3_11_1 0
x_3_11_2 0
x_3_11_3 0
x_3_11_4 0
x_3_11_5 0
x_3_12_0 0
x_3_12_1 0
x_3_12_2 0
x_3_12_3 0
x_3_12_4 0
x_3_12_5 0
x_3_13_0 0
x_3_13_1 0
x_3_13_2 0
x_3_13_3 0
x_3_13_4 0
x_3_13_5 0
x_3_14_0 0
x_3_14_1 0
x_3_14_2 0
x_3_14_3 0
x_3_14_4 -1.7347234759768071e-17
x_3_14_5 0
x_3_15_0 0
x_3_15_1 0
x_3_15_2 0
x_3_15_3 0
x_3_15_4 1.3877787807814457e-17
x_3_15_5 0
x_4_5_0 0
x_4_5_1 0
x_4_5_2 9.9999999999999722e-01
x_4_5_3 0
x_4_5_4 0
x_4_5_5 0
x_4_6_0 0
x_4_6_1 0
x_4_6_2 0
x_4_6_3 0
x_4_6_4 0
x_4_6_5 0
x_4_7_0 0
x_4_7_1 0
x_4_7_2 0
x_4_7_3 0
x_4_7_4 0
x_4_7_5 0
x_4_8_0 0
x_4_8_1 9.9999999999999978e-01
x_4_8_2 0
x_4_8_3 2.7200464103316335e-15
x_4_8_4 -1.7000290064572710e-16
x_4_8_5 0
x_4_9_0 0
x_4_9_1 0
x_4_9_2 0
x_4_9_3 0
x_4_9_4 0
x_4_9_5 0
x_4_10_0 0
x_4_10_1 0
x_4_10_2 0
x_4_10_3 0
x_4_10_4 0
x_4_10_5 0
x_4_11_0 0
x_4_11_1 0
x_4_11_2 0
x_4_11_3 0
x_4_11_4 0
x_4_11_5 0
x_4_12_0 0
x_4_12_1 0
x_4_12_2 0
x_4_12_3 0
x_4_12_4 0
x_4_12_5 0
x_4_13_0 0
x_4_13_1 0
x_4_13_2 0
x_4_13_3 0
x_4_13_4 0
x_4_13_5 0
x_4_14_0 0
x_4_14_1 0
x_4_14_2 0
x_4_14_3 2.0816681711721685e-17
x_4_14_4 0
x_4_14_5 0
x_4_15_0 0
x_4_15_1 9.9999999999999944e-01
x_4_15_2 0
x_4_15_3 2.5118795932144167e-15
x_4_15_4 1
x_4_15_5 2.7755575615628914e-17
x_5_6_0 0
x_5_6_1 1
x_5_6_2 2.5604518505417673e-15
x_5_6_3 2.7755575615628914e-17
x_5_6_4 9.9999999999999978e-01
x_5_6_5 -1.1102230246251565e-16
x_5_7_0 0
x_5_7_1 1
x_5_7_2 0.999999999999998
x_5_7_3 0
x_5_7_4 -2.2204460492503131e-16
x_5_7_5 0
x_5_8_0 0
x_5_8_1 0
x_5_8_2 0
x_5_8_3 -2.7200464103316335e-15
x_5_8_4 0
x_5_8_5 -2.42861286636753e-17
x_5_9_0 0
x_5_9_1 0
x_5_9_2 0
x_5_9_3 1.3877787807814457e-16
x_5_9_4 -2.0816681711721685e-17
x_5_9_5 1.3877787807814457e-17
x_5_10_0 0
x_5_10_1 0
x_5_10_2 0
x_5_10_3 0
x_5_10_4 0
x_5_10_5 0
x_5_11_0 0
x_5_11_1 0
x_5_11_2 0
x_5_11_3 0
x_5_11_4 0
x_5_11_5 0
x_5_12_0 0
x_5_12_1 0
x_5_12_2 0
x_5_12_3 0
x_5_12_4 0
x_5_12_5 0
x_5_13_0 0
x_5_13_1 0
x_5_13_2 0
x_5_13_3 0
x_5_13_4 0
x_5_13_5 0
x_5_14_0 0
x_5_14_1 0
x_5_14_2 0
x_5_14_3 0
x_5_14_4 0
x_5_14_5 0
x_5_15_0 0
x_5_15_1 0
x_5_15_2 0
x_5_15_3 0
x_5_15_4 0
x_5_15_5 0
x_6_7_0 0
x_6_7_1 0
x_6_7_2 9.9999999999999811e-01
x_6_7_3 0
x_6_7_4 1.0000000000000004e+00
x_6_7_5 1.1102230246251565e-16
x_6_8_0 0
x_6_8_1 0
x_6_8_2 0
x_6_8_3 0
x_6_8_4 0
x_6_8_5 0
x_6_9_0 0
x_6_9_1 0
x_6_9_2 0
x_6_9_3 0
x_6_9_4 0
x_6_9_5 0
x_6_10_0 0
x_6_10_1 0
x_6_10_2 0
x_6_10_3 0
x_6_10_4 0
x_6_10_5 0
x_6_11_0 0
x_6_11_1 0
x_6_11_2 0
x_6_11_3 0
x_6_11_4 0
x_6_11_5 0
x_6_12_0 0
x_6_12_1 0
x_6_12_2 0
x_6_12_3 0
x_6_12_4 0
x_6_12_5 0
x_6_13_0 0
x_6_13_1 1
x_6_13_2 1
x_6_13_3 0
x_6_13_4 -1.97758476261356e-16
x_6_13_5 0
x_6_14_0 0
x_6_14_1 0
x_6_14_2 0
x_6_14_3 0
x_6_14_4 0
x_6_14_5 0
x_6_15_0 0
x_6_15_1 0
x_6_15_2 0
x_6_15_3 0
x_6_15_4 0
x_6_15_5 0
x_7_8_0 0
x_7_8_1 9.9999999999999989e-01
x_7_8_2 0
x_7_8_3 0
x_7_8_4 9.9999999999999978e-01
x_7_8_5 -2.42861286636753e-17
x_7_9_0 0
x_7_9_1 0
x_7_9_2 0
x_7_9_3 0
x_7_9_4 0
x_7_9_5 0
x_7_10_0 0
x_7_10_1 0
x_7_10_2 0
x_7_10_3 0
x_7_10_4 0
x_7_10_5 0
x_7_11_0 0
x_7_11_1 0
x_7_11_2 0
x_7_11_3 0
x_7_11_4 0
x_7_11_5 0
x_7_12_0 0
x_7_12_1 0
x_7_12_2 0
x_7_12_3 0
x_7_12_4 0
x_7_12_5 0
x_7_13_0 0
x_7_13_1 0
x_7_13_2 0
x_7_13_3 0
x_7_13_4 0
x_7_13_5 0
x_7_14_0 0
x_7_14_1 0
x_7_14_2 0
x_7_14_3 0
x_7_14_4 0
x_7_14_5 0
x_7_15_0 0
x_7_15_1 0
x_7_15_2 0
x_7_15_3 0
x_7_15_4 0
x_7_15_5 0
x_8_9_0 0
x_8_9_1 0
x_8_9_2 0
x_8_9_3 0
x_8_9_4 0
x_8_9_5 0
x_8_10_0 0
x_8_10_1 0
x_8_10_2 0
x_8_10_3 0
x_8_10_4 0
x_8_10_5 0
x_8_11_0 0
x_8_11_1 0
x_8_11_2 0
x_8_11_3 0
x_8_11_4 0
x_8_11_5 0
x_8_12_0 0
x_8_12_1 0
x_8_12_2 0
x_8_12_3 0
x_8_12_4 0
x_8_12_5 0
x_8_13_0 0
x_8_13_1 0
x_8_13_2 0
x_8_13_3 0
x_8_13_4 9.9999999999999989e-01
x_8_13_5 0
x_8_14_0 0
x_8_14_1 0
x_8_14_2 0
x_8_14_3 0
x_8_14_4 0
x_8_14_5 0
x_8_15_0 0
x_8_15_1 0
x_8_15_2 0
x_8_15_3 0
x_8_15_4 0
x_8_15_5 0
x_9_10_0 0
x_9_10_1 1
x_9_10_2 1.0000000000000002e+00
x_9_10_3 -1.3877787807814457e-16
x_9_10_4 1.0000000000000009e+00
x_9_10_5 -1.3877787807814457e-17
x_9_11_0 0
x_9_11_1 0
x_9_11_2 0
x_9_11_3 0
x_9_11_4 0
x_9_11_5 0
x_9_12_0 0
x_9_12_1 0
x_9_12_2 -7.6327832942979512e-17
x_9_12_3 0
x_9_12_4 0
x_9_12_5 0
x_9_13_0 0
x_9_13_1 0
x_9_13_2 0
x_9_13_3 0
x_9_13_4 0
x_9_13_5 0
x_9_14_0 0
x_9_14_1 0
x_9_14_2 0
x_9_14_3 0
x_9_14_4 0
x_9_14_5 0
x_9_15_0 0
x_9_15_1 0
x_9_15_2 0
x_9_15_3 0
x_9_15_4 0
x_9_15_5 0
x_10_11_0 0
x_10_11_1 0
x_10_11_2 1
x_10_11_3 0
x_10_11_4 0.999999999999999
x_10_11_5 1.3877787807814457e-17
x_10_12_0 0
x_10_12_1 0
x_10_12_2 7.6327832942979512e-17
x_10_12_3 0
x_10_12_4 1.3877787807814457e-17
x_10_12_5 0
x_10_13_0 0
x_10_13_1 1
x_10_13_2 0
x_10_13_3 0
x_10_13_4 0
x_10_13_5 0
x_10_14_0 0
x_10_14_1 0
x_10_14_2 0
x_10_14_3 0
x_10_14_4 0
x_10_14_5 0
x_10_15_0 0
x_10_15_1 0
x_10_15_2 0
x_10_15_3 0
x_10_15_4 0
x_10_15_5 0
x_11_12_0 0
x_11_12_1 0
x_11_12_2 1
x_11_12_3 0
x_11_12_4 0.999999999999999
x_11_12_5 0
x_11_13_0 0
x_11_13_1 0
x_11_13_2 0
x_11_13_3 0
x_11_13_4 0
x_11_13_5 0
x_11_14_0 0
x_11_14_1 0
x_11_14_2 0
x_11_14_3 0
x_11_14_4 0
x_11_14_5 0
x_11_15_0 0
x_11_15_1 0
x_11_15_2 0
x_11_15_3 0
x_11_15_4 0
x_11_15_5 0
x_12_13_0 0
x_12_13_1 0
x_12_13_2 1
x_12_13_3 0
x_12_13_4 1.0000000000000009e+00
x_12_13_5 0
x_12_14_0 0
x_12_14_1 0
x_12_14_2 0
x_12_14_3 0
x_12_14_4 0
x_12_14_5 0
x_12_15_0 0
x_12_15_1 0
x_12_15_2 0
x_12_15_3 0
x_12_15_4 0
x_12_15_5 0
x_13_14_0 0
x_13_14_1 0
x_13_14_2 0
x_13_14_3 0
x_13_14_4 0
x_13_14_5 0
x_13_15_0 0
x_13_15_1 0
x_13_15_2 0
x_13_15_3 0
x_13_15_4 0
x_13_15_5 0
x_14_15_0 0
x_14_15_1 1
x_14_15_2 0
x_14_15_3 1
x_14_15_4 1
x_14_15_5 0
